\ This file has been generated by DOcplex
\ ENCODING=ISO-8859-1
\Problem name: random_problem.lp

Minimize
 obj: 3 x0 + 8 x1 - 5 x3 + 2 x5 + 6 x6 - 3 x7 + 8 x8 - 2 x9 + 6 x10 - 8 x11
      + 3 x12 - 5 x13 + 2 x14 + 8 x15 + 5 x16 - 9 x17 - 4 x18 - x19 - 5 x20
      - 9 x21 - 9 x22 + x24 - 3 x25 - 9 x26 + 6 x27 - 3 x28 - x29 - 2 x30 + x31
      + 9 x32 - 10 x33 + 10 x34 + 7 x35 + 8 x36 + 10 x37 - 4 x38 - 2 x39
      + 10 x40 - 6 x41 + 6 x42 + 5 x43 - x44 + 6 x45 + 3 x46 + 3 x47 + x48
      - 6 x49 + 2 x50 + 3 x51 - 10 x52 - 5 x53 - 4 x54 - x55 + 4 x57 + x58 + x59
      - 8 x60 + 4 x61 - 7 x62 + 6 x63 + 5 x64 - 7 x65 + 6 x66 - 10 x67 + 2 x68
      - 4 x69 - x70 - 5 x71 + 6 x72 + 3 x75 + 2 x76 - 10 x77 + 5 x78 + 4 x79
      - 2 x80 + 8 x82 + 4 x84 + 9 x85 + 10 x86 - 4 x87 + 4 x88 + 10 x89 - 9 x90
      + 6 x91 + 4 x93 + 9 x94 + 4 x95 + 10 x96 - x98 - x99 - 8 x100 - 7 x101
      - 8 x102 + 10 x103 + 10 x104 - 2 x105 - 4 x106 + 10 x107 + 7 x108 + 2 x109
      - 10 x110 - 6 x111 + 6 x113 + 9 x114 - x115 - 7 x116 - x118 - 5 x119
      - x120 + x122 + 5 x123 + 3 x125 + 4 x126 + 9 x127 + 8 x128 + 2 x129
      + 5 x130 + 4 x132 - 8 x133 + 10 x134 + 8 x135 - 2 x136 - 6 x137 + 6 x138
      + 6 x139 - 4 x140 + 8 x141 - 5 x142 + x143 + 5 x144 - 8 x145 + 6 x146
      - 9 x147 - x148 - 2 x149 + 3 x150 + x151 - 5 x152 - 5 x153 + 9 x154
      + 7 x155 - 4 x156 - 6 x157 + 8 x158 - 2 x159 - 4 x160 + 10 x161 - 8 x162
      + 9 x163 + 10 x164 - x165 - 3 x167 - 10 x168 - 3 x169 + 2 x170 - 2 x171
      + 7 x172 - 8 x173 + 5 x175 - 4 x176 + 8 x177 - 8 x178 + 10 x179 - 5 x180
      + 4 x181 - 3 x182 + 7 x183 + 7 x184 - 10 x186 + 9 x187 + 5 x188 + 5 x189
      + x190 - 5 x191 - 6 x192 + 7 x193 + x195 - 9 x196 + 7 x197 + x198 - 7 x199
      - 3 x200 - 2 x201 - 10 x202 - 5 x203 - 8 x204 + 6 x205 + 5 x206 - 3 x207
      + 3 x208 + 6 x209 - 4 x210 - 5 x212 + 2 x213 - 4 x214 + 2 x216 - 7 x217
      - 5 x218 - 2 x219 + 8 x220 + 9 x221 + 2 x222 - 5 x223 - 2 x224 - 9 x225
      + 5 x226 - 4 x227 - 8 x228 + 5 x229 - 7 x230 - 4 x232 - 5 x233 - 9 x234
      + 6 x235 + 7 x236 + 3 x237 + x238 - 9 x239 - 5 x240 + 9 x241 - 6 x242
      - x243 + 7 x244 - 6 x245 - 7 x246 - 5 x247 - 4 x248 - 9 x249 + [ 12 x0*x33
      + 6 x0*x46 + 6 x0*x102 - 12 x0*x180 + 20 x0*x241 - 8 x1*x40 + 12 x1*x116
      - 10 x1*x124 - 18 x1*x191 - 2 x1*x195 + 4 x2*x42 + 8 x2*x56 + 2 x2*x98
      + 8 x2*x111 + 12 x2*x202 + 18 x3*x40 - 2 x3*x100 + 18 x3*x131 + 16 x3*x165
      - 18 x3*x194 - 14 x4*x113 + 14 x4*x117 + 8 x4*x153 - 14 x4*x218
      - 2 x4*x249 - 18 x5*x9 + 6 x5*x42 - 10 x5*x90 - 6 x5*x113 - 14 x5*x187
      - 4 x6*x90 + 20 x6*x104 + 4 x6*x142 + 8 x6*x194 + 10 x6*x249 - 10 x7*x27
      + 2 x7*x48 + 2 x7*x91 + 18 x7*x94 + 6 x7*x114 + 6 x8*x148 + 12 x8*x160
      - 14 x8*x163 + 10 x8*x207 + 6 x8*x220 + 8 x9*x74 - 2 x9*x158 + 14 x9*x164
      + 8 x9*x223 + 10 x10*x45 + 14 x10*x91 + 8 x10*x146 + 2 x10*x187
      + 2 x10*x198 + 8 x11*x52 + 8 x11*x98 + 4 x11*x189 - 10 x11*x198
      - 12 x11*x209 + 8 x12*x13 - 16 x12*x17 + 4 x12*x62 + 12 x12*x133
      - 8 x12*x137 - 16 x13*x30 + 18 x13*x31 - 12 x13*x44 - 12 x13*x245
      + 20 x14*x31 + 12 x14*x70 + 2 x14*x99 + 8 x14*x123 - 12 x14*x184
      - 18 x15*x103 - 20 x15*x136 - 4 x15*x180 - 16 x15*x190 - 18 x15*x244
      + 6 x16*x18 - 6 x16*x114 + 6 x16*x140 + 12 x16*x156 - 2 x16*x231
      - 14 x17*x89 + 16 x17*x161 + 16 x17*x182 - 10 x17*x213 + 2 x18*x50
      + 4 x18*x64 - 16 x18*x193 - 4 x18*x226 - 16 x19*x46 - 2 x19*x72
      + 8 x19*x81 - 20 x19*x107 - 14 x19*x115 - 14 x20*x56 - 20 x20*x71
      - 2 x20*x85 + 6 x20*x124 - 18 x20*x238 - 10 x21*x47 - 4 x21*x142
      + 20 x21*x167 - 18 x21*x192 - 4 x21*x225 + 10 x22*x33 - 6 x22*x97
      + 16 x22*x136 + 20 x22*x229 + 6 x22*x233 + 8 x23*x36 + 12 x23*x67
      - 12 x23*x88 + 12 x23*x116 - 18 x23*x151 - 14 x24*x47 + 10 x24*x119
      + 18 x24*x203 + 2 x24*x234 + 6 x24*x243 + 2 x25*x77 - 10 x25*x99
      - 4 x25*x125 + 16 x25*x163 - 6 x25*x249 - 8 x26*x40 + 8 x26*x57
      - 16 x26*x127 - 16 x26*x129 - 12 x26*x230 - 16 x27*x32 + 16 x27*x88
      + 14 x27*x114 + 20 x27*x208 + 18 x28*x38 + 12 x28*x112 + 14 x28*x183
      + 6 x28*x205 + 20 x28*x219 + 18 x29*x119 - 18 x29*x197 - 20 x29*x205
      - 14 x29*x221 + 12 x29*x240 - 18 x30*x101 + 8 x30*x159 + 20 x30*x232
      + 8 x30*x245 + 16 x31*x106 + 2 x31*x209 + 20 x31*x234 + 2 x32*x57
      - 2 x32*x114 - 6 x32*x156 - 16 x32*x214 + 2 x33*x102 + 10 x33*x179
      + 16 x33*x246 - 12 x34*x83 - 16 x34*x87 - 4 x34*x122 + 8 x34*x169
      + 2 x34*x219 + 6 x35*x76 + 18 x35*x82 + 6 x35*x110 + 2 x35*x134
      + 20 x35*x209 - 14 x36*x50 - 20 x36*x72 + 14 x36*x127 + 6 x36*x244
      + 4 x37*x44 - 14 x37*x95 - 8 x37*x96 - 20 x37*x196 + 6 x37*x225
      + 8 x38*x114 - 16 x38*x128 - 18 x38*x177 + 14 x38*x222 + 2 x39*x106
      + 12 x39*x109 + 16 x39*x190 - 14 x39*x199 - 2 x39*x236 - 2 x40*x58
      + 6 x40*x120 + 14 x41*x153 - 10 x41*x185 - 18 x41*x206 - 14 x41*x227
      + 8 x41*x243 - 16 x42*x158 - 6 x42*x174 - 14 x42*x237 + 18 x43*x60
      - 14 x43*x85 - 6 x43*x94 - 12 x43*x110 + 10 x43*x241 - 12 x44*x53
      + 4 x44*x203 + 12 x44*x221 - 6 x45*x63 - 14 x45*x92 - 18 x45*x122
      + 18 x45*x226 + 16 x46*x84 + 14 x46*x120 + 6 x46*x215 + 16 x47*x49
      + 2 x47*x212 - 14 x47*x213 - 8 x48*x80 + 16 x48*x152 - 6 x48*x217
      + 8 x48*x218 - 4 x49*x88 + 12 x49*x108 - 18 x49*x169 - 18 x49*x170
      + 20 x50*x169 + 20 x50*x191 + 14 x50*x228 - 18 x51*x57 - 20 x51*x82
      - 10 x51*x144 - 18 x51*x171 + 2 x51*x228 - 14 x52*x150 - 16 x52*x190
      + 6 x52*x219 - 8 x52*x239 + 20 x53*x132 + 12 x53*x162 + 16 x53*x220
      + 14 x53*x235 + 20 x54*x59 + 16 x54*x121 - 4 x54*x125 - 20 x54*x135
      + 14 x54*x246 + 6 x55*x137 - 12 x55*x151 - 14 x55*x155 - 4 x55*x156
      - 18 x55*x178 - 12 x56*x91 + 18 x56*x152 - 12 x56*x207 + 6 x57*x168
      + 16 x57*x172 - 4 x58*x100 - 8 x58*x107 - 4 x58*x134 - 14 x58*x157
      + 10 x59*x92 + 10 x59*x164 - 4 x59*x195 - 6 x59*x212 + 18 x60*x74
      + 8 x60*x126 - 10 x60*x138 + 16 x60*x160 + 16 x61*x105 - 12 x61*x181
      + 20 x61*x186 + 6 x61*x210 - 20 x61*x217 + 20 x62*x130 + 8 x62*x166
      - 6 x62*x208 - 14 x62*x226 + 20 x63*x93 - 16 x63*x146 + 12 x63*x167
      - 2 x63*x170 - 4 x64*x72 - 8 x64*x126 - 12 x64*x224 + 4 x64*x235
      - 6 x65*x123 + 10 x65*x127 - 14 x65*x132 + 12 x65*x181 + 8 x65*x240
      + 14 x66*x90 - 12 x66*x178 - 18 x66*x186 + 20 x66*x209 + 2 x66*x215
      - 18 x67*x76 + 20 x67*x147 + 4 x67*x190 + 16 x67*x223 + 8 x68*x108
      + 8 x68*x112 - 8 x68*x132 + 8 x68*x154 - 8 x68*x221 + 12 x69*x86
      - 14 x69*x87 - 16 x69*x188 + 12 x69*x192 - 14 x69*x247 - 2 x70*x98
      - 10 x70*x144 + 8 x70*x204 - 6 x70*x238 + 14 x71*x127 + 20 x71*x138
      - 8 x71*x200 + 18 x71*x241 + 14 x72*x135 - 10 x72*x160 + 4 x73*x96
      + 2 x73*x192 - 20 x73*x197 + 14 x73*x208 + 20 x73*x216 - 4 x74*x83
      + 6 x74*x160 + 4 x74*x226 - 8 x75*x105 - 20 x75*x168 - 6 x75*x200
      - 16 x75*x216 - 14 x75*x240 + 18 x76*x129 + 6 x76*x157 + 6 x76*x164
      + 18 x77*x101 + 16 x77*x115 + 18 x77*x134 - 6 x77*x137 + 12 x78*x97
      + 16 x78*x122 + 12 x78*x124 - 10 x78*x140 - 4 x78*x210 - 12 x79*x94
      + 20 x79*x118 - 20 x79*x178 + 2 x79*x213 - 4 x79*x232 - 18 x80*x83
      - 6 x80*x96 + 8 x80*x203 + 6 x80*x218 - 16 x81*x82 - 2 x81*x175
      + 4 x81*x193 - 8 x81*x194 + 4 x82*x89 + 8 x82*x140 - 14 x83*x153
      - 2 x83*x207 - 6 x84*x86 + 16 x84*x95 - 14 x84*x168 + 2 x84*x223
      + 18 x85*x144 + 14 x85*x212 + 18 x85*x241 - 18 x86*x109 - 14 x86*x131
      - 10 x86*x207 - 12 x87*x110 - 4 x87*x161 + 16 x87*x175 - 18 x88*x180
      - 18 x88*x248 - 8 x89*x130 - 10 x89*x177 - 18 x89*x244 + 20 x90*x102
      + 2 x90*x187 - 16 x91*x105 + 12 x91*x242 - 12 x92*x93 - 8 x92*x126
      + 2 x92*x224 + 18 x93*x126 - 16 x93*x214 + 20 x93*x231 + 20 x94*x174
      + 20 x94*x242 - 6 x95*x121 - 8 x95*x157 + 12 x95*x226 - 10 x96*x201
      + 4 x96*x213 + 20 x97*x204 - 8 x97*x209 - 12 x97*x232 + 20 x98*x138
      + 16 x98*x225 - 8 x99*x115 + 8 x99*x174 + 18 x99*x243 + 2 x100*x113
      + 18 x100*x164 + 16 x100*x215 - 10 x101*x204 + 8 x101*x221 + 20 x101*x230
      - 4 x102*x211 - 12 x102*x237 + 20 x103*x124 + 2 x103*x155 + 18 x103*x167
      + 4 x103*x168 - 12 x104*x131 - 4 x104*x142 - 20 x104*x196 + 20 x104*x215
      - 6 x105*x171 + 4 x105*x197 - 6 x106*x142 - 14 x106*x193 - 16 x106*x220
      - 20 x107*x131 + 10 x107*x172 - 20 x107*x193 - 6 x108*x158 + 12 x108*x184
      + 2 x108*x188 + 20 x109*x176 - 10 x109*x230 + 20 x109*x233 + 14 x110*x166
      - 4 x110*x186 - 8 x111*x117 - 16 x111*x236 + 6 x111*x241 + 6 x111*x245
      - 4 x112*x135 + 8 x112*x149 - 4 x112*x196 + 6 x113*x116 + 10 x113*x141
      - 4 x115*x168 + 2 x115*x196 - 16 x116*x163 + 12 x116*x222 - 16 x117*x152
      + 12 x117*x162 - 8 x117*x229 - 20 x118*x145 + 6 x118*x149 - 8 x118*x180
      + 8 x118*x189 - 2 x119*x120 - 8 x119*x162 - 4 x119*x200 - 12 x120*x159
      - 10 x120*x227 + 8 x121*x123 + 6 x121*x128 + 20 x121*x220 - 16 x122*x138
      - 18 x122*x170 - 20 x123*x152 + 14 x123*x201 - 8 x124*x184 - 10 x125*x179
      + 16 x125*x188 + 6 x125*x206 - 12 x126*x140 - 2 x127*x161 - 4 x128*x189
      + 12 x128*x197 - 2 x128*x205 - 16 x129*x182 - 20 x129*x201 - 20 x129*x211
      + 10 x130*x136 - 2 x130*x208 + 12 x130*x234 - 10 x131*x236 - 4 x132*x225
      + 4 x132*x242 - 4 x133*x223 + 4 x133*x234 + 12 x133*x235 - 8 x133*x243
      - 10 x134*x216 + 4 x134*x239 - 6 x135*x150 + 8 x135*x187 + 2 x136*x222
      + 14 x136*x229 - 14 x137*x148 + 16 x137*x212 + 16 x138*x170 + 2 x139*x155
      - 14 x139*x174 - 10 x139*x198 + 8 x139*x227 - 8 x139*x247 + 12 x140*x206
      + 14 x141*x161 - 6 x141*x179 - 10 x141*x184 + 8 x141*x237 - 2 x142*x151
      - 2 x143*x150 - 14 x143*x191 + 2 x143*x223 - 6 x143*x228 + 10 x143*x229
      - 20 x144*x155 + 18 x144*x181 + 6 x145*x154 + 2 x145*x180 - 12 x145*x200
      + 14 x145*x238 - 8 x146*x176 + 8 x146*x191 + 20 x146*x196 - 10 x147*x164
      + 8 x147*x182 + 2 x147*x232 - 18 x147*x242 + 6 x148*x150 - 16 x148*x231
      + 20 x148*x233 + 18 x149*x195 + 18 x149*x203 + 8 x149*x207 - 14 x150*x183
      + 18 x151*x212 + 12 x151*x216 + 8 x152*x245 - 20 x153*x178 + 14 x153*x218
      - 12 x154*x175 + 8 x154*x182 - 16 x154*x198 - 6 x155*x242 + 4 x156*x199
      - 8 x156*x246 + 6 x157*x172 + 14 x157*x227 - 2 x158*x162 + 18 x158*x211
      - 12 x159*x166 + 18 x159*x211 - 18 x159*x244 - 10 x160*x192 + 18 x161*x181
      - 2 x162*x238 - 2 x163*x177 - 10 x163*x202 - 2 x165*x185 + 10 x165*x199
      + 10 x165*x205 - 18 x165*x210 + 20 x166*x183 + 18 x166*x231 + 4 x167*x177
      - 20 x167*x186 - 4 x169*x173 + 4 x169*x249 - 8 x170*x246 + 10 x171*x187
      + 12 x171*x217 + 6 x171*x239 - 20 x172*x173 - 6 x172*x220 + 12 x173*x234
      - 8 x173*x245 - 2 x173*x248 - 4 x174*x206 - 14 x175*x210 + 4 x175*x224
      - 8 x176*x195 + 2 x176*x246 + 4 x176*x248 - 6 x177*x222 + 16 x178*x183
      + 14 x179*x188 - 20 x179*x238 + 16 x181*x227 - 16 x182*x231 - 14 x183*x216
      - 10 x184*x193 - 12 x185*x217 + 2 x185*x229 - 16 x185*x235 + 12 x186*x205
      - 8 x188*x217 + 2 x189*x228 - 10 x189*x243 - 14 x190*x210 - 8 x191*x239
      + 10 x192*x215 - 4 x194*x197 + 2 x194*x225 - 2 x195*x248 - 8 x198*x213
      - 20 x199*x237 + 6 x199*x240 - 12 x200*x244 - 20 x201*x204 - 4 x201*x236
      - 4 x202*x218 - 6 x202*x224 - 20 x202*x247 + 12 x203*x208 + 4 x204*x214
      + 20 x206*x228 + 14 x211*x237 - 10 x214*x224 - 6 x214*x230 + 20 x219*x233
      - 4 x219*x239 - 2 x221*x235 + 4 x222*x233 + 14 x230*x240 + 18 x232*x247
      - 16 x236*x249 - 12 x247*x248 ]/2
Subject To
 c0: 2 x59 + x136 - x137 + 2 x200 - 2 x244 = 1
 c1: 2 x52 - 2 x137 + 2 x220 + x221 - 2 x228 = -2
 c2: x9 - 2 x158 - x206 + x223 - 2 x234 = -1
 c3: 2 x98 + x102 + x135 - 2 x222 - x225 = 0
 c4: - 2 x38 - x56 + 2 x181 + 2 x215 + 2 x233 = -2
 c5: 2 x40 + 2 x52 - x135 + x142 + x168 = 0
 c6: - 2 x24 - 2 x33 + x52 - 2 x153 - 2 x225 = 0
 c7: - 2 x6 - 2 x18 + x22 - x86 + x197 = 1
 c8: - x10 - x18 - 2 x33 + x117 + x129 = 0
 c9: - x49 - x81 + 2 x189 + x229 + 2 x244 = -2
 c10: 2 x24 - 2 x118 - x216 - x220 - x238 = 0
 c11: 2 x75 + x80 - x117 - x179 + 2 x185 = 1
 c12: - 2 x14 - x33 + x44 - 2 x47 + 2 x157 = -2
 c13: - 2 x101 + x120 + x143 - 2 x152 - 2 x171 = -1
 c14: - 2 x8 + 2 x27 + 2 x54 - 2 x87 - x102 = -2
 c15: - x17 - 2 x127 + 2 x129 + 2 x196 + 2 x201 = -2
 c16: 2 x12 - 2 x28 - 2 x37 - x80 - x94 = -1
 c17: - 2 x12 + 2 x95 - x123 + 2 x207 + x223 = 1
 c18: - 2 x52 + x60 + x82 + 2 x86 + 2 x194 = 1
 c19: x36 - 2 x65 + x74 + 2 x156 - 2 x221 = -1
 c20: - x19 - x82 - 2 x149 - 2 x229 - 2 x240 = -2
 c21: 2 x30 - 2 x42 - x47 - 2 x91 - x171 = 0
 c22: - x49 + 2 x73 - x145 - x196 + 2 x216 = 0
 c23: - x45 + x100 - 2 x107 - x156 + x186 = 1
 c24: x16 + x50 + x76 - x95 - 2 x165 = 1

Bounds
 0 <= x0 <= 1
 0 <= x1 <= 1
 0 <= x2 <= 1
 0 <= x3 <= 1
 0 <= x4 <= 1
 0 <= x5 <= 1
 0 <= x6 <= 1
 0 <= x7 <= 1
 0 <= x8 <= 1
 0 <= x9 <= 1
 0 <= x10 <= 1
 0 <= x11 <= 1
 0 <= x12 <= 1
 0 <= x13 <= 1
 0 <= x14 <= 1
 0 <= x15 <= 1
 0 <= x16 <= 1
 0 <= x17 <= 1
 0 <= x18 <= 1
 0 <= x19 <= 1
 0 <= x20 <= 1
 0 <= x21 <= 1
 0 <= x22 <= 1
 0 <= x23 <= 1
 0 <= x24 <= 1
 0 <= x25 <= 1
 0 <= x26 <= 1
 0 <= x27 <= 1
 0 <= x28 <= 1
 0 <= x29 <= 1
 0 <= x30 <= 1
 0 <= x31 <= 1
 0 <= x32 <= 1
 0 <= x33 <= 1
 0 <= x34 <= 1
 0 <= x35 <= 1
 0 <= x36 <= 1
 0 <= x37 <= 1
 0 <= x38 <= 1
 0 <= x39 <= 1
 0 <= x40 <= 1
 0 <= x41 <= 1
 0 <= x42 <= 1
 0 <= x43 <= 1
 0 <= x44 <= 1
 0 <= x45 <= 1
 0 <= x46 <= 1
 0 <= x47 <= 1
 0 <= x48 <= 1
 0 <= x49 <= 1
 0 <= x50 <= 1
 0 <= x51 <= 1
 0 <= x52 <= 1
 0 <= x53 <= 1
 0 <= x54 <= 1
 0 <= x55 <= 1
 0 <= x56 <= 1
 0 <= x57 <= 1
 0 <= x58 <= 1
 0 <= x59 <= 1
 0 <= x60 <= 1
 0 <= x61 <= 1
 0 <= x62 <= 1
 0 <= x63 <= 1
 0 <= x64 <= 1
 0 <= x65 <= 1
 0 <= x66 <= 1
 0 <= x67 <= 1
 0 <= x68 <= 1
 0 <= x69 <= 1
 0 <= x70 <= 1
 0 <= x71 <= 1
 0 <= x72 <= 1
 0 <= x73 <= 1
 0 <= x74 <= 1
 0 <= x75 <= 1
 0 <= x76 <= 1
 0 <= x77 <= 1
 0 <= x78 <= 1
 0 <= x79 <= 1
 0 <= x80 <= 1
 0 <= x81 <= 1
 0 <= x82 <= 1
 0 <= x83 <= 1
 0 <= x84 <= 1
 0 <= x85 <= 1
 0 <= x86 <= 1
 0 <= x87 <= 1
 0 <= x88 <= 1
 0 <= x89 <= 1
 0 <= x90 <= 1
 0 <= x91 <= 1
 0 <= x92 <= 1
 0 <= x93 <= 1
 0 <= x94 <= 1
 0 <= x95 <= 1
 0 <= x96 <= 1
 0 <= x97 <= 1
 0 <= x98 <= 1
 0 <= x99 <= 1
 0 <= x100 <= 1
 0 <= x101 <= 1
 0 <= x102 <= 1
 0 <= x103 <= 1
 0 <= x104 <= 1
 0 <= x105 <= 1
 0 <= x106 <= 1
 0 <= x107 <= 1
 0 <= x108 <= 1
 0 <= x109 <= 1
 0 <= x110 <= 1
 0 <= x111 <= 1
 0 <= x112 <= 1
 0 <= x113 <= 1
 0 <= x114 <= 1
 0 <= x115 <= 1
 0 <= x116 <= 1
 0 <= x117 <= 1
 0 <= x118 <= 1
 0 <= x119 <= 1
 0 <= x120 <= 1
 0 <= x121 <= 1
 0 <= x122 <= 1
 0 <= x123 <= 1
 0 <= x124 <= 1
 0 <= x125 <= 1
 0 <= x126 <= 1
 0 <= x127 <= 1
 0 <= x128 <= 1
 0 <= x129 <= 1
 0 <= x130 <= 1
 0 <= x131 <= 1
 0 <= x132 <= 1
 0 <= x133 <= 1
 0 <= x134 <= 1
 0 <= x135 <= 1
 0 <= x136 <= 1
 0 <= x137 <= 1
 0 <= x138 <= 1
 0 <= x139 <= 1
 0 <= x140 <= 1
 0 <= x141 <= 1
 0 <= x142 <= 1
 0 <= x143 <= 1
 0 <= x144 <= 1
 0 <= x145 <= 1
 0 <= x146 <= 1
 0 <= x147 <= 1
 0 <= x148 <= 1
 0 <= x149 <= 1
 0 <= x150 <= 1
 0 <= x151 <= 1
 0 <= x152 <= 1
 0 <= x153 <= 1
 0 <= x154 <= 1
 0 <= x155 <= 1
 0 <= x156 <= 1
 0 <= x157 <= 1
 0 <= x158 <= 1
 0 <= x159 <= 1
 0 <= x160 <= 1
 0 <= x161 <= 1
 0 <= x162 <= 1
 0 <= x163 <= 1
 0 <= x164 <= 1
 0 <= x165 <= 1
 0 <= x166 <= 1
 0 <= x167 <= 1
 0 <= x168 <= 1
 0 <= x169 <= 1
 0 <= x170 <= 1
 0 <= x171 <= 1
 0 <= x172 <= 1
 0 <= x173 <= 1
 0 <= x174 <= 1
 0 <= x175 <= 1
 0 <= x176 <= 1
 0 <= x177 <= 1
 0 <= x178 <= 1
 0 <= x179 <= 1
 0 <= x180 <= 1
 0 <= x181 <= 1
 0 <= x182 <= 1
 0 <= x183 <= 1
 0 <= x184 <= 1
 0 <= x185 <= 1
 0 <= x186 <= 1
 0 <= x187 <= 1
 0 <= x188 <= 1
 0 <= x189 <= 1
 0 <= x190 <= 1
 0 <= x191 <= 1
 0 <= x192 <= 1
 0 <= x193 <= 1
 0 <= x194 <= 1
 0 <= x195 <= 1
 0 <= x196 <= 1
 0 <= x197 <= 1
 0 <= x198 <= 1
 0 <= x199 <= 1
 0 <= x200 <= 1
 0 <= x201 <= 1
 0 <= x202 <= 1
 0 <= x203 <= 1
 0 <= x204 <= 1
 0 <= x205 <= 1
 0 <= x206 <= 1
 0 <= x207 <= 1
 0 <= x208 <= 1
 0 <= x209 <= 1
 0 <= x210 <= 1
 0 <= x211 <= 1
 0 <= x212 <= 1
 0 <= x213 <= 1
 0 <= x214 <= 1
 0 <= x215 <= 1
 0 <= x216 <= 1
 0 <= x217 <= 1
 0 <= x218 <= 1
 0 <= x219 <= 1
 0 <= x220 <= 1
 0 <= x221 <= 1
 0 <= x222 <= 1
 0 <= x223 <= 1
 0 <= x224 <= 1
 0 <= x225 <= 1
 0 <= x226 <= 1
 0 <= x227 <= 1
 0 <= x228 <= 1
 0 <= x229 <= 1
 0 <= x230 <= 1
 0 <= x231 <= 1
 0 <= x232 <= 1
 0 <= x233 <= 1
 0 <= x234 <= 1
 0 <= x235 <= 1
 0 <= x236 <= 1
 0 <= x237 <= 1
 0 <= x238 <= 1
 0 <= x239 <= 1
 0 <= x240 <= 1
 0 <= x241 <= 1
 0 <= x242 <= 1
 0 <= x243 <= 1
 0 <= x244 <= 1
 0 <= x245 <= 1
 0 <= x246 <= 1
 0 <= x247 <= 1
 0 <= x248 <= 1
 0 <= x249 <= 1

Binaries
 x0 x1 x2 x3 x4 x5 x6 x7 x8 x9 x10 x11 x12 x13 x14 x15 x16 x17 x18 x19 x20 x21
 x22 x23 x24 x25 x26 x27 x28 x29 x30 x31 x32 x33 x34 x35 x36 x37 x38 x39 x40 x41
 x42 x43 x44 x45 x46 x47 x48 x49 x50 x51 x52 x53 x54 x55 x56 x57 x58 x59 x60 x61
 x62 x63 x64 x65 x66 x67 x68 x69 x70 x71 x72 x73 x74 x75 x76 x77 x78 x79 x80 x81
 x82 x83 x84 x85 x86 x87 x88 x89 x90 x91 x92 x93 x94 x95 x96 x97 x98 x99 x100
 x101 x102 x103 x104 x105 x106 x107 x108 x109 x110 x111 x112 x113 x114 x115 x116
 x117 x118 x119 x120 x121 x122 x123 x124 x125 x126 x127 x128 x129 x130 x131 x132
 x133 x134 x135 x136 x137 x138 x139 x140 x141 x142 x143 x144 x145 x146 x147 x148
 x149 x150 x151 x152 x153 x154 x155 x156 x157 x158 x159 x160 x161 x162 x163 x164
 x165 x166 x167 x168 x169 x170 x171 x172 x173 x174 x175 x176 x177 x178 x179 x180
 x181 x182 x183 x184 x185 x186 x187 x188 x189 x190 x191 x192 x193 x194 x195 x196
 x197 x198 x199 x200 x201 x202 x203 x204 x205 x206 x207 x208 x209 x210 x211 x212
 x213 x214 x215 x216 x217 x218 x219 x220 x221 x222 x223 x224 x225 x226 x227 x228
 x229 x230 x231 x232 x233 x234 x235 x236 x237 x238 x239 x240 x241 x242 x243 x244
 x245 x246 x247 x248 x249
End
